12 965
525 7 479 7 355 7 106 9 925 13
525 7 479 7 355 7 106 9 925 13
520 7 442 7 297 7 156 12
525 7 505 7 381 7 218 9 50 11 849 15 661 22
525 7 482 7 394 7 212 9 29 11 822 15 623 21
525 7 484 7 368 7 123 9 857 11 631 18
525 7 482 7 362 7 118 9 855 11 630 18
535 8 492 8 398 9 231 10 69 14 899 50
535 8 492 8 398 9 231 10 69 14 899 50
520 7 476 7 355 7 196 12
520 7 476 7 355 7 196 12
525 7 445 7 264 7 63 9 889 11 721 18
